c 3 __LINUXTHREADS_OLD__
c 1 __UCLIBC_HAS_THREADS_NATIVE__
c 2 __UCLIBC_HAS_XLOCALE__
c 6 __UCLIBC_HAS_LOCALE__
c 7 __LINUXTHREADS_NEW__
c 4 __UCLIBC_HAS_THREADS__
c 5 __USE_OLD_VFPRINTF__
p cnf 7 2
1 3 -2 5 -4 6 7 1
-2 6 4 5 1
